n=5;
m=7;

r=1;
s=9;


num_o= 7;

def_o= array2d(1..num_o,1..4,
[ 1,1,9,2,
  1,4,12,4,
  2,1,14,4,
  3,1,4,2,
  3,5,11,3,
  4,3,13,3,
  5,2,15,5
]);

num_v= 8;

def_v= array2d(1..num_v,1..4,
[ 1,1,13,4,
  1,2,10,3,
  1,4,8,2,
  1,6,12,3,
  3,5,14,3,
  3,7,6,2,
  4,3,4,2,
  4,4,7,2
]);